c description: Graph 4-Colorability of graph: 
c generator: CNFgen (0.9.0)
c copyright: (C) 2012-2020 Massimo Lauria <massimo.lauria@uniroma1.it>
c url: https://massimolauria.net/cnfgen
c
p cnf 200 1150
1 2 3 4 0
-1 -2 0
-1 -3 0
-1 -4 0
-2 -3 0
-2 -4 0
-3 -4 0
5 6 7 8 0
-5 -6 0
-5 -7 0
-5 -8 0
-6 -7 0
-6 -8 0
-7 -8 0
9 10 11 12 0
-9 -10 0
-9 -11 0
-9 -12 0
-10 -11 0
-10 -12 0
-11 -12 0
13 14 15 16 0
-13 -14 0
-13 -15 0
-13 -16 0
-14 -15 0
-14 -16 0
-15 -16 0
17 18 19 20 0
-17 -18 0
-17 -19 0
-17 -20 0
-18 -19 0
-18 -20 0
-19 -20 0
21 22 23 24 0
-21 -22 0
-21 -23 0
-21 -24 0
-22 -23 0
-22 -24 0
-23 -24 0
25 26 27 28 0
-25 -26 0
-25 -27 0
-25 -28 0
-26 -27 0
-26 -28 0
-27 -28 0
29 30 31 32 0
-29 -30 0
-29 -31 0
-29 -32 0
-30 -31 0
-30 -32 0
-31 -32 0
33 34 35 36 0
-33 -34 0
-33 -35 0
-33 -36 0
-34 -35 0
-34 -36 0
-35 -36 0
37 38 39 40 0
-37 -38 0
-37 -39 0
-37 -40 0
-38 -39 0
-38 -40 0
-39 -40 0
41 42 43 44 0
-41 -42 0
-41 -43 0
-41 -44 0
-42 -43 0
-42 -44 0
-43 -44 0
45 46 47 48 0
-45 -46 0
-45 -47 0
-45 -48 0
-46 -47 0
-46 -48 0
-47 -48 0
49 50 51 52 0
-49 -50 0
-49 -51 0
-49 -52 0
-50 -51 0
-50 -52 0
-51 -52 0
53 54 55 56 0
-53 -54 0
-53 -55 0
-53 -56 0
-54 -55 0
-54 -56 0
-55 -56 0
57 58 59 60 0
-57 -58 0
-57 -59 0
-57 -60 0
-58 -59 0
-58 -60 0
-59 -60 0
61 62 63 64 0
-61 -62 0
-61 -63 0
-61 -64 0
-62 -63 0
-62 -64 0
-63 -64 0
65 66 67 68 0
-65 -66 0
-65 -67 0
-65 -68 0
-66 -67 0
-66 -68 0
-67 -68 0
69 70 71 72 0
-69 -70 0
-69 -71 0
-69 -72 0
-70 -71 0
-70 -72 0
-71 -72 0
73 74 75 76 0
-73 -74 0
-73 -75 0
-73 -76 0
-74 -75 0
-74 -76 0
-75 -76 0
77 78 79 80 0
-77 -78 0
-77 -79 0
-77 -80 0
-78 -79 0
-78 -80 0
-79 -80 0
81 82 83 84 0
-81 -82 0
-81 -83 0
-81 -84 0
-82 -83 0
-82 -84 0
-83 -84 0
85 86 87 88 0
-85 -86 0
-85 -87 0
-85 -88 0
-86 -87 0
-86 -88 0
-87 -88 0
89 90 91 92 0
-89 -90 0
-89 -91 0
-89 -92 0
-90 -91 0
-90 -92 0
-91 -92 0
93 94 95 96 0
-93 -94 0
-93 -95 0
-93 -96 0
-94 -95 0
-94 -96 0
-95 -96 0
97 98 99 100 0
-97 -98 0
-97 -99 0
-97 -100 0
-98 -99 0
-98 -100 0
-99 -100 0
101 102 103 104 0
-101 -102 0
-101 -103 0
-101 -104 0
-102 -103 0
-102 -104 0
-103 -104 0
105 106 107 108 0
-105 -106 0
-105 -107 0
-105 -108 0
-106 -107 0
-106 -108 0
-107 -108 0
109 110 111 112 0
-109 -110 0
-109 -111 0
-109 -112 0
-110 -111 0
-110 -112 0
-111 -112 0
113 114 115 116 0
-113 -114 0
-113 -115 0
-113 -116 0
-114 -115 0
-114 -116 0
-115 -116 0
117 118 119 120 0
-117 -118 0
-117 -119 0
-117 -120 0
-118 -119 0
-118 -120 0
-119 -120 0
121 122 123 124 0
-121 -122 0
-121 -123 0
-121 -124 0
-122 -123 0
-122 -124 0
-123 -124 0
125 126 127 128 0
-125 -126 0
-125 -127 0
-125 -128 0
-126 -127 0
-126 -128 0
-127 -128 0
129 130 131 132 0
-129 -130 0
-129 -131 0
-129 -132 0
-130 -131 0
-130 -132 0
-131 -132 0
133 134 135 136 0
-133 -134 0
-133 -135 0
-133 -136 0
-134 -135 0
-134 -136 0
-135 -136 0
137 138 139 140 0
-137 -138 0
-137 -139 0
-137 -140 0
-138 -139 0
-138 -140 0
-139 -140 0
141 142 143 144 0
-141 -142 0
-141 -143 0
-141 -144 0
-142 -143 0
-142 -144 0
-143 -144 0
145 146 147 148 0
-145 -146 0
-145 -147 0
-145 -148 0
-146 -147 0
-146 -148 0
-147 -148 0
149 150 151 152 0
-149 -150 0
-149 -151 0
-149 -152 0
-150 -151 0
-150 -152 0
-151 -152 0
153 154 155 156 0
-153 -154 0
-153 -155 0
-153 -156 0
-154 -155 0
-154 -156 0
-155 -156 0
157 158 159 160 0
-157 -158 0
-157 -159 0
-157 -160 0
-158 -159 0
-158 -160 0
-159 -160 0
161 162 163 164 0
-161 -162 0
-161 -163 0
-161 -164 0
-162 -163 0
-162 -164 0
-163 -164 0
165 166 167 168 0
-165 -166 0
-165 -167 0
-165 -168 0
-166 -167 0
-166 -168 0
-167 -168 0
169 170 171 172 0
-169 -170 0
-169 -171 0
-169 -172 0
-170 -171 0
-170 -172 0
-171 -172 0
173 174 175 176 0
-173 -174 0
-173 -175 0
-173 -176 0
-174 -175 0
-174 -176 0
-175 -176 0
177 178 179 180 0
-177 -178 0
-177 -179 0
-177 -180 0
-178 -179 0
-178 -180 0
-179 -180 0
181 182 183 184 0
-181 -182 0
-181 -183 0
-181 -184 0
-182 -183 0
-182 -184 0
-183 -184 0
185 186 187 188 0
-185 -186 0
-185 -187 0
-185 -188 0
-186 -187 0
-186 -188 0
-187 -188 0
189 190 191 192 0
-189 -190 0
-189 -191 0
-189 -192 0
-190 -191 0
-190 -192 0
-191 -192 0
193 194 195 196 0
-193 -194 0
-193 -195 0
-193 -196 0
-194 -195 0
-194 -196 0
-195 -196 0
197 198 199 200 0
-197 -198 0
-197 -199 0
-197 -200 0
-198 -199 0
-198 -200 0
-199 -200 0
-1 -21 0
-2 -22 0
-3 -23 0
-4 -24 0
-1 -29 0
-2 -30 0
-3 -31 0
-4 -32 0
-1 -57 0
-2 -58 0
-3 -59 0
-4 -60 0
-1 -69 0
-2 -70 0
-3 -71 0
-4 -72 0
-1 -73 0
-2 -74 0
-3 -75 0
-4 -76 0
-1 -93 0
-2 -94 0
-3 -95 0
-4 -96 0
-1 -141 0
-2 -142 0
-3 -143 0
-4 -144 0
-1 -157 0
-2 -158 0
-3 -159 0
-4 -160 0
-1 -173 0
-2 -174 0
-3 -175 0
-4 -176 0
-5 -9 0
-6 -10 0
-7 -11 0
-8 -12 0
-5 -37 0
-6 -38 0
-7 -39 0
-8 -40 0
-5 -45 0
-6 -46 0
-7 -47 0
-8 -48 0
-5 -73 0
-6 -74 0
-7 -75 0
-8 -76 0
-5 -105 0
-6 -106 0
-7 -107 0
-8 -108 0
-5 -113 0
-6 -114 0
-7 -115 0
-8 -116 0
-5 -141 0
-6 -142 0
-7 -143 0
-8 -144 0
-5 -153 0
-6 -154 0
-7 -155 0
-8 -156 0
-5 -165 0
-6 -166 0
-7 -167 0
-8 -168 0
-5 -197 0
-6 -198 0
-7 -199 0
-8 -200 0
-9 -13 0
-10 -14 0
-11 -15 0
-12 -16 0
-9 -53 0
-10 -54 0
-11 -55 0
-12 -56 0
-9 -125 0
-10 -126 0
-11 -127 0
-12 -128 0
-9 -193 0
-10 -194 0
-11 -195 0
-12 -196 0
-13 -69 0
-14 -70 0
-15 -71 0
-16 -72 0
-13 -101 0
-14 -102 0
-15 -103 0
-16 -104 0
-13 -141 0
-14 -142 0
-15 -143 0
-16 -144 0
-13 -149 0
-14 -150 0
-15 -151 0
-16 -152 0
-13 -161 0
-14 -162 0
-15 -163 0
-16 -164 0
-13 -189 0
-14 -190 0
-15 -191 0
-16 -192 0
-17 -25 0
-18 -26 0
-19 -27 0
-20 -28 0
-17 -29 0
-18 -30 0
-19 -31 0
-20 -32 0
-17 -49 0
-18 -50 0
-19 -51 0
-20 -52 0
-17 -69 0
-18 -70 0
-19 -71 0
-20 -72 0
-17 -93 0
-18 -94 0
-19 -95 0
-20 -96 0
-17 -105 0
-18 -106 0
-19 -107 0
-20 -108 0
-17 -109 0
-18 -110 0
-19 -111 0
-20 -112 0
-17 -113 0
-18 -114 0
-19 -115 0
-20 -116 0
-17 -137 0
-18 -138 0
-19 -139 0
-20 -140 0
-17 -145 0
-18 -146 0
-19 -147 0
-20 -148 0
-21 -41 0
-22 -42 0
-23 -43 0
-24 -44 0
-21 -45 0
-22 -46 0
-23 -47 0
-24 -48 0
-21 -61 0
-22 -62 0
-23 -63 0
-24 -64 0
-21 -73 0
-22 -74 0
-23 -75 0
-24 -76 0
-21 -89 0
-22 -90 0
-23 -91 0
-24 -92 0
-21 -109 0
-22 -110 0
-23 -111 0
-24 -112 0
-21 -121 0
-22 -122 0
-23 -123 0
-24 -124 0
-21 -125 0
-22 -126 0
-23 -127 0
-24 -128 0
-21 -141 0
-22 -142 0
-23 -143 0
-24 -144 0
-21 -165 0
-22 -166 0
-23 -167 0
-24 -168 0
-21 -177 0
-22 -178 0
-23 -179 0
-24 -180 0
-25 -37 0
-26 -38 0
-27 -39 0
-28 -40 0
-25 -57 0
-26 -58 0
-27 -59 0
-28 -60 0
-25 -173 0
-26 -174 0
-27 -175 0
-28 -176 0
-25 -177 0
-26 -178 0
-27 -179 0
-28 -180 0
-25 -181 0
-26 -182 0
-27 -183 0
-28 -184 0
-29 -37 0
-30 -38 0
-31 -39 0
-32 -40 0
-29 -149 0
-30 -150 0
-31 -151 0
-32 -152 0
-29 -173 0
-30 -174 0
-31 -175 0
-32 -176 0
-33 -41 0
-34 -42 0
-35 -43 0
-36 -44 0
-33 -45 0
-34 -46 0
-35 -47 0
-36 -48 0
-33 -77 0
-34 -78 0
-35 -79 0
-36 -80 0
-33 -81 0
-34 -82 0
-35 -83 0
-36 -84 0
-33 -89 0
-34 -90 0
-35 -91 0
-36 -92 0
-33 -121 0
-34 -122 0
-35 -123 0
-36 -124 0
-33 -133 0
-34 -134 0
-35 -135 0
-36 -136 0
-33 -157 0
-34 -158 0
-35 -159 0
-36 -160 0
-33 -173 0
-34 -174 0
-35 -175 0
-36 -176 0
-33 -177 0
-34 -178 0
-35 -179 0
-36 -180 0
-33 -185 0
-34 -186 0
-35 -187 0
-36 -188 0
-33 -189 0
-34 -190 0
-35 -191 0
-36 -192 0
-33 -197 0
-34 -198 0
-35 -199 0
-36 -200 0
-37 -81 0
-38 -82 0
-39 -83 0
-40 -84 0
-37 -121 0
-38 -122 0
-39 -123 0
-40 -124 0
-37 -149 0
-38 -150 0
-39 -151 0
-40 -152 0
-37 -165 0
-38 -166 0
-39 -167 0
-40 -168 0
-37 -193 0
-38 -194 0
-39 -195 0
-40 -196 0
-41 -53 0
-42 -54 0
-43 -55 0
-44 -56 0
-41 -61 0
-42 -62 0
-43 -63 0
-44 -64 0
-41 -81 0
-42 -82 0
-43 -83 0
-44 -84 0
-41 -89 0
-42 -90 0
-43 -91 0
-44 -92 0
-41 -105 0
-42 -106 0
-43 -107 0
-44 -108 0
-41 -109 0
-42 -110 0
-43 -111 0
-44 -112 0
-41 -113 0
-42 -114 0
-43 -115 0
-44 -116 0
-41 -121 0
-42 -122 0
-43 -123 0
-44 -124 0
-41 -129 0
-42 -130 0
-43 -131 0
-44 -132 0
-41 -161 0
-42 -162 0
-43 -163 0
-44 -164 0
-41 -177 0
-42 -178 0
-43 -179 0
-44 -180 0
-45 -53 0
-46 -54 0
-47 -55 0
-48 -56 0
-45 -57 0
-46 -58 0
-47 -59 0
-48 -60 0
-45 -105 0
-46 -106 0
-47 -107 0
-48 -108 0
-45 -173 0
-46 -174 0
-47 -175 0
-48 -176 0
-45 -197 0
-46 -198 0
-47 -199 0
-48 -200 0
-49 -57 0
-50 -58 0
-51 -59 0
-52 -60 0
-49 -61 0
-50 -62 0
-51 -63 0
-52 -64 0
-49 -69 0
-50 -70 0
-51 -71 0
-52 -72 0
-49 -89 0
-50 -90 0
-51 -91 0
-52 -92 0
-49 -149 0
-50 -150 0
-51 -151 0
-52 -152 0
-49 -193 0
-50 -194 0
-51 -195 0
-52 -196 0
-53 -73 0
-54 -74 0
-55 -75 0
-56 -76 0
-53 -85 0
-54 -86 0
-55 -87 0
-56 -88 0
-53 -101 0
-54 -102 0
-55 -103 0
-56 -104 0
-53 -133 0
-54 -134 0
-55 -135 0
-56 -136 0
-53 -137 0
-54 -138 0
-55 -139 0
-56 -140 0
-53 -153 0
-54 -154 0
-55 -155 0
-56 -156 0
-53 -157 0
-54 -158 0
-55 -159 0
-56 -160 0
-53 -161 0
-54 -162 0
-55 -163 0
-56 -164 0
-53 -193 0
-54 -194 0
-55 -195 0
-56 -196 0
-57 -141 0
-58 -142 0
-59 -143 0
-60 -144 0
-57 -165 0
-58 -166 0
-59 -167 0
-60 -168 0
-61 -77 0
-62 -78 0
-63 -79 0
-64 -80 0
-61 -93 0
-62 -94 0
-63 -95 0
-64 -96 0
-61 -105 0
-62 -106 0
-63 -107 0
-64 -108 0
-61 -133 0
-62 -134 0
-63 -135 0
-64 -136 0
-61 -141 0
-62 -142 0
-63 -143 0
-64 -144 0
-61 -161 0
-62 -162 0
-63 -163 0
-64 -164 0
-65 -81 0
-66 -82 0
-67 -83 0
-68 -84 0
-65 -85 0
-66 -86 0
-67 -87 0
-68 -88 0
-65 -181 0
-66 -182 0
-67 -183 0
-68 -184 0
-69 -89 0
-70 -90 0
-71 -91 0
-72 -92 0
-69 -109 0
-70 -110 0
-71 -111 0
-72 -112 0
-69 -121 0
-70 -122 0
-71 -123 0
-72 -124 0
-69 -137 0
-70 -138 0
-71 -139 0
-72 -140 0
-73 -97 0
-74 -98 0
-75 -99 0
-76 -100 0
-73 -101 0
-74 -102 0
-75 -103 0
-76 -104 0
-73 -117 0
-74 -118 0
-75 -119 0
-76 -120 0
-73 -145 0
-74 -146 0
-75 -147 0
-76 -148 0
-73 -189 0
-74 -190 0
-75 -191 0
-76 -192 0
-77 -117 0
-78 -118 0
-79 -119 0
-80 -120 0
-77 -133 0
-78 -134 0
-79 -135 0
-80 -136 0
-77 -137 0
-78 -138 0
-79 -139 0
-80 -140 0
-77 -145 0
-78 -146 0
-79 -147 0
-80 -148 0
-77 -161 0
-78 -162 0
-79 -163 0
-80 -164 0
-77 -177 0
-78 -178 0
-79 -179 0
-80 -180 0
-77 -193 0
-78 -194 0
-79 -195 0
-80 -196 0
-81 -101 0
-82 -102 0
-83 -103 0
-84 -104 0
-81 -105 0
-82 -106 0
-83 -107 0
-84 -108 0
-81 -125 0
-82 -126 0
-83 -127 0
-84 -128 0
-81 -161 0
-82 -162 0
-83 -163 0
-84 -164 0
-85 -89 0
-86 -90 0
-87 -91 0
-88 -92 0
-85 -177 0
-86 -178 0
-87 -179 0
-88 -180 0
-85 -185 0
-86 -186 0
-87 -187 0
-88 -188 0
-85 -193 0
-86 -194 0
-87 -195 0
-88 -196 0
-89 -101 0
-90 -102 0
-91 -103 0
-92 -104 0
-89 -113 0
-90 -114 0
-91 -115 0
-92 -116 0
-89 -133 0
-90 -134 0
-91 -135 0
-92 -136 0
-89 -197 0
-90 -198 0
-91 -199 0
-92 -200 0
-93 -97 0
-94 -98 0
-95 -99 0
-96 -100 0
-93 -141 0
-94 -142 0
-95 -143 0
-96 -144 0
-93 -185 0
-94 -186 0
-95 -187 0
-96 -188 0
-93 -197 0
-94 -198 0
-95 -199 0
-96 -200 0
-97 -101 0
-98 -102 0
-99 -103 0
-100 -104 0
-97 -117 0
-98 -118 0
-99 -119 0
-100 -120 0
-97 -121 0
-98 -122 0
-99 -123 0
-100 -124 0
-97 -129 0
-98 -130 0
-99 -131 0
-100 -132 0
-97 -137 0
-98 -138 0
-99 -139 0
-100 -140 0
-97 -185 0
-98 -186 0
-99 -187 0
-100 -188 0
-101 -137 0
-102 -138 0
-103 -139 0
-104 -140 0
-105 -129 0
-106 -130 0
-107 -131 0
-108 -132 0
-105 -133 0
-106 -134 0
-107 -135 0
-108 -136 0
-105 -169 0
-106 -170 0
-107 -171 0
-108 -172 0
-105 -173 0
-106 -174 0
-107 -175 0
-108 -176 0
-105 -177 0
-106 -178 0
-107 -179 0
-108 -180 0
-109 -125 0
-110 -126 0
-111 -127 0
-112 -128 0
-113 -129 0
-114 -130 0
-115 -131 0
-116 -132 0
-113 -149 0
-114 -150 0
-115 -151 0
-116 -152 0
-117 -129 0
-118 -130 0
-119 -131 0
-120 -132 0
-117 -141 0
-118 -142 0
-119 -143 0
-120 -144 0
-121 -149 0
-122 -150 0
-123 -151 0
-124 -152 0
-121 -161 0
-122 -162 0
-123 -163 0
-124 -164 0
-121 -173 0
-122 -174 0
-123 -175 0
-124 -176 0
-121 -177 0
-122 -178 0
-123 -179 0
-124 -180 0
-121 -185 0
-122 -186 0
-123 -187 0
-124 -188 0
-125 -149 0
-126 -150 0
-127 -151 0
-128 -152 0
-125 -169 0
-126 -170 0
-127 -171 0
-128 -172 0
-129 -165 0
-130 -166 0
-131 -167 0
-132 -168 0
-137 -169 0
-138 -170 0
-139 -171 0
-140 -172 0
-137 -173 0
-138 -174 0
-139 -175 0
-140 -176 0
-137 -185 0
-138 -186 0
-139 -187 0
-140 -188 0
-137 -197 0
-138 -198 0
-139 -199 0
-140 -200 0
-141 -157 0
-142 -158 0
-143 -159 0
-144 -160 0
-141 -193 0
-142 -194 0
-143 -195 0
-144 -196 0
-145 -161 0
-146 -162 0
-147 -163 0
-148 -164 0
-145 -181 0
-146 -182 0
-147 -183 0
-148 -184 0
-145 -189 0
-146 -190 0
-147 -191 0
-148 -192 0
-149 -193 0
-150 -194 0
-151 -195 0
-152 -196 0
-149 -197 0
-150 -198 0
-151 -199 0
-152 -200 0
-153 -197 0
-154 -198 0
-155 -199 0
-156 -200 0
-157 -193 0
-158 -194 0
-159 -195 0
-160 -196 0
-161 -169 0
-162 -170 0
-163 -171 0
-164 -172 0
-161 -185 0
-162 -186 0
-163 -187 0
-164 -188 0
-161 -189 0
-162 -190 0
-163 -191 0
-164 -192 0
-165 -181 0
-166 -182 0
-167 -183 0
-168 -184 0
-169 -181 0
-170 -182 0
-171 -183 0
-172 -184 0
-173 -181 0
-174 -182 0
-175 -183 0
-176 -184 0
-173 -193 0
-174 -194 0
-175 -195 0
-176 -196 0
-181 -185 0
-182 -186 0
-183 -187 0
-184 -188 0
-181 -197 0
-182 -198 0
-183 -199 0
-184 -200 0
-185 -193 0
-186 -194 0
-187 -195 0
-188 -196 0
-185 -197 0
-186 -198 0
-187 -199 0
-188 -200 0
-193 -197 0
-194 -198 0
-195 -199 0
-196 -200 0